15	53
0	1	54
0	6	64
0	7	48
0	12	63
0	13	27
0	14	34
1	2	15
1	3	26
1	4	73
1	9	61
1	12	92
1	14	21
2	3	80
2	4	14
2	6	55
2	8	72
2	9	52
2	13	95
2	14	18
3	5	24
3	8	40
3	10	34
3	12	73
3	13	26
3	14	55
4	5	67
4	6	45
4	7	47
4	11	81
4	14	33
5	6	11
5	7	18
5	10	72
5	11	9
5	12	5
5	13	49
5	14	87
6	8	8
6	10	23
6	11	73
6	12	68
6	14	30
7	8	34
7	9	22
7	10	50
8	9	41
8	13	39
9	11	7
9	13	68
10	13	39
10	14	14
12	13	87
12	14	88
